p cnf 91 377
12 13 57 58 -73 -79 0
12 -31 57 -73 -78 -79 0
1 2 24 -32 59 0
1 2 24 -32 -62 0
1 10 -21 83 88 0
1 10 -60 69 83 0
3 4 16 51 -68 0
3 4 23 -50 68 0
3 19 -50 -51 -91 0
3 24 35 56 59 0
-3 -16 -23 -51 67 0
-3 -16 -23 67 91 0
7 42 45 46 60 0
7 45 46 -48 64 0
10 11 26 -27 -28 0
10 11 26 -28 57 0
10 20 21 22 -72 0
13 -16 -51 67 85 0
13 57 58 -73 78 0
19 23 38 39 64 0
1 10 69 83 88 0
11 12 26 -27 34 0
11 12 -31 -34 57 0
-15 29 -30 57 58 0
1 2 -32 59 0
1 -21 42 88 0
1 -42 60 83 0
-1 8 -10 -88 0
3 4 23 89 0
3 19 51 -91 0
-3 -16 67 91 0
-3 -19 -89 91 0
4 -5 78 84 0
-5 52 78 -84 0
-6 -35 37 62 0
7 8 -47 55 0
7 -47 55 64 0
8 9 46 -47 0
-8 -10 -70 -83 0
9 40 -43 -87 0
9 40 46 64 0
9 45 -53 55 0
9 45 55 64 0
10 20 22 -72 0
13 49 67 85 0
-17 22 -44 -72 0
-18 -19 -39 -40 0
19 23 -30 74 0
19 23 -33 -65 0
19 26 -33 -80 0
-19 -25 -27 -28 0
-19 -39 -41 -44 0
22 54 70 71 0
-23 25 65 80 0
25 27 32 -34 0
29 30 33 37 0
-30 -36 37 63 0
-38 41 -54 -70 0
-38 47 -64 -70 0
45 46 60 -87 0
52 62 -78 82 0
66 68 -86 90 0
1 2 56 -62 0
3 23 32 56 0
-3 -23 86 -89 0
4 -78 79 84 0
-5 52 62 84 0
-5 -63 78 -84 0
12 13 -73 79 0
12 -19 -79 -84 0
13 -16 -51 85 0
13 -16 67 91 0
19 23 39 54 0
22 69 70 -77 0
-26 -28 31 57 0
30 -31 57 -73 0
-30 -31 -73 78 0
46 -47 64 81 0
1 -21 83 0
1 60 83 0
-1 24 -59 0
2 56 -61 0
2 65 -74 0
3 24 -33 0
3 -24 35 0
3 -32 -62 0
-3 -16 86 0
-3 50 89 0
-3 -86 90 0
4 -36 63 0
4 51 -85 0
4 -51 68 0
-4 -78 82 0
5 78 84 0
-5 6 35 0
-5 -6 74 0
-5 62 -63 0
6 -33 -36 0
-6 32 61 0
-7 -8 42 0
-7 -8 -42 0
-7 -8 -60 0
8 9 -47 0
-8 -39 -55 0
-8 41 48 0
-8 -42 -83 0
-8 70 88 0
9 -47 -48 0
-9 -46 -48 0
10 -27 -34 0
10 -70 88 0
11 -14 58 0
11 -31 -76 0
-11 -14 -15 0
-11 -58 80 0
12 -19 26 0
-12 -19 79 0
-12 -29 73 0
-12 78 -79 0
13 49 67 0
13 -68 -89 0
13 -86 -90 0
-13 -67 86 0
-13 68 90 0
-13 -85 90 0
-16 -49 -50 0
17 19 42 0
17 23 40 0
17 44 -71 0
17 -44 -71 0
-17 44 77 0
18 54 64 0
-18 -19 -44 0
-18 -38 -64 0
-18 -47 81 0
19 -36 -74 0
19 -36 -80 0
19 -50 -68 0
19 60 69 0
-19 -24 -25 0
-19 -25 59 0
-19 -40 -43 0
-19 -43 45 0
-19 45 -48 0
-19 -51 -89 0
-19 65 -74 0
-19 -79 84 0
20 -38 53 0
-20 21 70 0
-20 70 72 0
-21 71 -72 0
22 -41 53 0
22 -69 -77 0
23 40 -43 0
23 56 -62 0
23 -74 -75 0
23 75 -76 0
23 -75 -80 0
-23 -26 -59 0
-23 -27 -56 0
-23 -38 70 0
-23 -40 -43 0
25 33 56 0
25 65 74 0
25 75 76 0
25 76 -80 0
-25 36 63 0
-25 -36 -74 0
-25 -36 -80 0
29 -36 -37 0
32 -56 -61 0
-33 -78 80 0
-35 36 82 0
-35 -52 -65 0
-35 -74 -75 0
-36 -65 74 0
-36 -65 82 0
-38 53 71 0
40 46 -87 0
-40 43 87 0
45 -60 83 0
-46 47 -64 0
-50 66 86 0
52 82 -84 0
58 76 80 0
58 -78 -79 0
66 67 -90 0
-66 67 90 0
-66 67 -90 0
-66 -67 86 0
-66 86 -89 0
70 77 -88 0
-75 76 -80 0
1 7 0
1 21 0
1 32 0
1 56 0
1 -69 0
1 -74 0
1 -83 0
1 -87 0
-1 8 0
-1 29 0
-1 39 0
-1 -59 0
2 6 0
2 61 0
2 65 0
2 75 0
-2 -6 0
-2 19 0
-2 35 0
-2 37 0
-2 -65 0
3 7 0
3 -32 0
3 42 0
3 59 0
3 60 0
3 -62 0
3 66 0
3 -91 0
-3 32 0
-3 44 0
-3 49 0
-3 51 0
-3 -68 0
-3 -70 0
4 7 0
4 10 0
4 -36 0
4 -50 0
4 -52 0
4 61 0
4 78 0
4 -84 0
-4 70 0
-4 78 0
-4 -84 0
5 -36 0
5 -52 0
5 -62 0
5 63 0
5 78 0
5 -78 0
5 -82 0
5 -84 0
6 -37 0
6 -62 0
6 -82 0
-6 -59 0
7 8 0
7 70 0
-7 -42 0
-7 -45 0
-7 -46 0
-7 87 0
8 9 0
8 -9 0
8 -42 0
8 46 0
8 55 0
8 -70 0
-8 -9 0
-8 -64 0
-8 -70 0
-8 87 0
-8 -88 0
9 -87 0
-9 43 0
-9 -46 0
10 -57 0
10 -58 0
10 -72 0
-10 -11 0
-10 -12 0
-10 14 0
-10 -26 0
-10 27 0
-10 32 0
-10 57 0
-10 -73 0
11 -12 0
11 13 0
11 15 0
11 34 0
11 -34 0
11 -80 0
-11 29 0
-11 -29 0
-11 31 0
-11 -57 0
12 58 0
-12 -13 0
-12 31 0
-12 -57 0
-12 -58 0
-12 -78 0
-12 -83 0
13 -16 0
13 50 0
13 -85 0
13 -89 0
13 -90 0
13 91 0
-13 -49 0
14 31 0
14 -57 0
14 -58 0
14 -63 0
14 73 0
14 79 0
14 -79 0
-14 49 0
-14 79 0
-14 -79 0
-14 -80 0
15 -29 0
15 30 0
15 31 0
15 -57 0
15 -58 0
-15 -29 0
-15 -80 0
16 32 0
16 49 0
16 50 0
-16 -49 0
-16 85 0
-16 86 0
17 40 0
17 45 0
17 -81 0
-17 -40 0
-17 -53 0
-17 -77 0
18 21 0
18 22 0
18 41 0
18 69 0
-18 -48 0
-18 -54 0
-18 -55 0
-18 -60 0
19 26 0
19 34 0
19 36 0
19 41 0
19 50 0
19 59 0
19 60 0
19 68 0
19 -74 0
19 75 0
19 85 0
-19 26 0
-19 -26 0
-19 30 0
-19 50 0
-19 -50 0
-19 51 0
-19 -51 0
-19 -53 0
-19 54 0
-19 -60 0
-19 -64 0
-19 65 0
-19 -76 0
-19 -77 0
-19 -85 0
-19 90 0
20 41 0
20 -69 0
-20 -22 0
-20 69 0
-20 77 0
21 -77 0
